
List of user-set options:

                                    Name   Value                used
                        file_print_level = 5                     yes
                   hessian_approximation = limited-memory        yes
                           linear_solver = mumps                 yes
                                max_iter = 1000                  yes
                             output_file = IPOPT.out             yes
                             print_level = 5                     yes
                      print_user_options = yes                   yes
                                      sb = yes                   yes
This is Ipopt version 3.14.14, running with linear solver MUMPS 5.6.2.

Number of nonzeros in equality constraint Jacobian...:    61812
Number of nonzeros in inequality constraint Jacobian.:        0
Number of nonzeros in Lagrangian Hessian.............:        0

Total number of variables............................:      306
                     variables with only lower bounds:      204
                variables with lower and upper bounds:        0
                     variables with only upper bounds:        0
Total number of equality constraints.................:      202
Total number of inequality constraints...............:        0
        inequality constraints with only lower bounds:        0
   inequality constraints with lower and upper bounds:        0
        inequality constraints with only upper bounds:        0

iter    objective    inf_pr   inf_du lg(mu)  ||d||  lg(rg) alpha_du alpha_pr  ls
   0  2.0498429e+02 2.55e+01 5.10e-02   0.0 0.00e+00    -  0.00e+00 0.00e+00   0
   1  2.8975928e+02 7.65e+00 9.37e+00   0.3 3.60e+00    -  1.00e+00 1.00e+00h  1
   2  2.2730558e+02 2.06e-01 2.87e+00  -0.4 3.69e+00    -  1.00e+00 1.00e+00f  1
   3  1.3381544e+02 1.98e-01 2.43e+00  -2.4 1.04e+00    -  1.00e+00 8.66e-01f  1
   4  1.0613588e+02 2.04e+00 2.55e+00  -2.6 5.50e+00    -  1.00e+00 5.66e-01f  1
   5  8.4680566e+01 6.03e+00 9.18e+00  -1.8 8.23e+00    -  1.00e+00 9.98e-01f  1
   6  9.0186069e+01 4.93e-02 4.11e-01  -2.1 5.64e+00    -  1.00e+00 1.00e+00h  1
   7  8.8490424e+01 2.00e-01 1.07e+00  -2.8 2.58e+00    -  1.00e+00 9.62e-01f  1
   8  8.8129536e+01 1.80e-01 1.84e-01  -3.6 2.71e+00    -  1.00e+00 1.00e+00h  1
   9  8.8314425e+01 1.03e-03 2.37e-02  -3.8 3.54e-01    -  1.00e+00 1.00e+00h  1
iter    objective    inf_pr   inf_du lg(mu)  ||d||  lg(rg) alpha_du alpha_pr  ls
  10  8.8298169e+01 5.03e-06 6.48e-04  -5.7 3.26e-03    -  1.00e+00 9.95e-01h  1
  11  8.8297841e+01 9.88e-08 2.75e-04  -7.7 1.95e-03    -  1.00e+00 9.97e-01h  1
  12  8.8297838e+01 9.16e-09 3.26e-06 -11.0 6.33e-04    -  1.00e+00 1.00e+00h  1
  13  8.8297838e+01 1.39e-11 1.28e-08 -11.0 2.44e-05    -  1.00e+00 1.00e+00h  1
  14  8.8297838e+01 2.30e-14 5.99e-09 -11.0 2.71e-10    -  1.00e+00 1.00e+00h  1

Number of Iterations....: 14

                                   (scaled)                 (unscaled)
Objective...............:   8.8297838271019288e+01    8.8297838271019288e+01
Dual infeasibility......:   5.9872748980893675e-09    5.9872748980893675e-09
Constraint violation....:   1.2537638719617505e-14    2.2981616609740740e-14
Variable bound violation:   9.9950000000001302e-09    9.9950000000001302e-09
Complementarity.........:   1.0019352218408800e-11    1.0019352218408800e-11
Overall NLP error.......:   5.9872748980893675e-09    5.9872748980893675e-09


Number of objective function evaluations             = 15
Number of objective gradient evaluations             = 15
Number of equality constraint evaluations            = 15
Number of inequality constraint evaluations          = 0
Number of equality constraint Jacobian evaluations   = 15
Number of inequality constraint Jacobian evaluations = 0
Number of Lagrangian Hessian evaluations             = 0
Total seconds in IPOPT                               = 4.259

EXIT: Optimal Solution Found.
